instances/knapsack/discrete_knapsack_uncertainty/knapsack_120_19.lp
\ Model knapsack_120_19
\ LP format - for model browsing. Use MPS format to capture full model detail.
\ Signature: 0x89f048c0c90eaa9
Minimize
  - 14 x[0] - 27 x[1] - 8 x[2] - 36 x[3] - 78 x[4] - 5 x[5] - 82 x[6]
   - 28 x[7] - 31 x[8] - 67 x[9] - 59 x[10] - 15 x[11] - 87 x[12]
   - 58 x[13] - 91 x[14] - 36 x[15] - 98 x[16] - 62 x[17] - 11 x[18]
   - 18 x[19] - 54 x[20] - 51 x[21] - 8 x[22] - 20 x[23] - 77 x[24]
   - 31 x[25] - 76 x[26] - 92 x[27] - 22 x[28] - 89 x[29] - 57 x[30]
   - 92 x[31] - 48 x[32] - 7 x[33] - 8 x[34] - 45 x[35] - x[36] - 7 x[37]
   - 27 x[38] - 48 x[39] - 4 x[40] - 42 x[41] - 58 x[42] - 91 x[43]
   - 43 x[44] - 31 x[45] - 77 x[46] - 57 x[47] - 9 x[48] - 58 x[49]
   - 27 x[50] - 71 x[51] - 15 x[52] - 17 x[53] - 72 x[54] - 14 x[55]
   - 27 x[56] - 12 x[57] - 48 x[58] - 19 x[59] - 4 x[60] - 94 x[61]
   - 66 x[62] - 42 x[63] - 59 x[64] - 41 x[65] - 33 x[66] - 2 x[67]
   - 13 x[68] - 94 x[69] - x[70] - 91 x[71] - 45 x[72] - 74 x[73]
   - 91 x[74] - 2 x[75] - 94 x[76] - 65 x[77] - 76 x[78] - 24 x[79]
   - 31 x[80] - 86 x[81] - 34 x[82] - 22 x[83] - 69 x[84] - 13 x[85]
   - 94 x[86] - 63 x[87] - 36 x[88] - 55 x[89] - 42 x[90] - 42 x[91]
   - 14 x[92] - 9 x[93] - 84 x[94] - 27 x[95] - 9 x[96] - 36 x[97]
   - 97 x[98] - 5 x[99] - 13 x[100] - 38 x[101] - 39 x[102] - 22 x[103]
   - 59 x[104] - 39 x[105] - 22 x[106] - 45 x[107] - 34 x[108] - 53 x[109]
   - 70 x[110] - 98 x[111] - 6 x[112] - 36 x[113] - 34 x[114] - 97 x[115]
   - 31 x[116] - 61 x[117] - 30 x[118] - 59 x[119]
Subject To
 primal_upper: 20 x[0] + 32 x[1] + 50 x[2] + 59 x[3] + 24 x[4] + 14 x[5]
   + 49 x[6] + 56 x[7] + x[8] + 74 x[9] + 92 x[10] + 59 x[11] + 32 x[12]
   + 32 x[13] + 33 x[14] + 5 x[15] + 65 x[16] + 28 x[17] + 21 x[18]
   + 54 x[19] + 65 x[20] + 92 x[21] + 4 x[22] + 83 x[23] + 49 x[24]
   + 56 x[25] + 18 x[26] + 88 x[27] + 2 x[28] + 3 x[29] + 78 x[30]
   + 4 x[31] + 24 x[32] + 61 x[33] + 28 x[34] + 65 x[35] + 96 x[36]
   + 5 x[37] + 16 x[38] + 95 x[39] + 83 x[40] + 6 x[41] + 90 x[42]
   + 14 x[43] + 35 x[44] + 87 x[45] + 34 x[46] + 42 x[47] + 23 x[48]
   + 16 x[49] + 63 x[50] + 64 x[51] + 25 x[52] + 80 x[53] + 73 x[54]
   + 36 x[55] + 93 x[56] + 7 x[57] + 72 x[58] + 78 x[59] + 29 x[60]
   + 87 x[61] + 8 x[62] + 67 x[63] + 56 x[64] + 20 x[65] + 33 x[66]
   + 63 x[67] + 52 x[68] + 38 x[69] + 90 x[70] + 62 x[71] + 46 x[72]
   + 23 x[73] + 28 x[74] + 41 x[75] + 87 x[76] + 63 x[77] + 61 x[78]
   + 43 x[79] + 6 x[80] + 30 x[81] + 79 x[82] + 62 x[83] + 98 x[84]
   + 98 x[85] + 16 x[86] + 60 x[87] + 18 x[88] + 35 x[89] + 37 x[90]
   + 93 x[91] + 17 x[92] + 68 x[93] + 28 x[94] + 93 x[95] + 85 x[96]
   + 49 x[97] + 8 x[98] + 84 x[99] + 49 x[100] + 100 x[101] + 66 x[102]
   + 28 x[103] + 53 x[104] + 78 x[105] + 59 x[106] + 75 x[107] + 71 x[108]
   + 85 x[109] + 79 x[110] + 11 x[111] + 69 x[112] + 17 x[113] + 45 x[114]
   + 35 x[115] + 7 x[116] + 85 x[117] + 73 x[118] + 81 x[119] + 2 r[0]
   + 3.2 r[1] + 5 r[2] + 5.9 r[3] + 2.4 r[4] + 1.4 r[5] + 4.9 r[6]
   + 5.6 r[7] + 0.1 r[8] + 7.4 r[9] + 9.2 r[10] + 5.9 r[11] + 3.2 r[12]
   + 3.2 r[13] + 3.3 r[14] + 0.5 r[15] + 6.5 r[16] + 2.8 r[17] + 2.1 r[18]
   + 5.4 r[19] + 6.5 r[20] + 9.2 r[21] + 0.4 r[22] + 8.3 r[23] + 4.9 r[24]
   + 5.6 r[25] + 1.8 r[26] + 8.8 r[27] + 0.2 r[28] + 0.3 r[29] + 7.8 r[30]
   + 0.4 r[31] + 2.4 r[32] + 6.1 r[33] + 2.8 r[34] + 6.5 r[35] + 9.6 r[36]
   + 0.5 r[37] + 1.6 r[38] + 9.5 r[39] + 8.3 r[40] + 0.6 r[41] + 9 r[42]
   + 1.4 r[43] + 3.5 r[44] + 8.7 r[45] + 3.4 r[46] + 4.2 r[47] + 2.3 r[48]
   + 1.6 r[49] + 6.3 r[50] + 6.4 r[51] + 2.5 r[52] + 8 r[53] + 7.3 r[54]
   + 3.6 r[55] + 9.3 r[56] + 0.7 r[57] + 7.2 r[58] + 7.8 r[59] + 2.9 r[60]
   + 8.7 r[61] + 0.8 r[62] + 6.7 r[63] + 5.6 r[64] + 2 r[65] + 3.3 r[66]
   + 6.3 r[67] + 5.2 r[68] + 3.8 r[69] + 9 r[70] + 6.2 r[71] + 4.6 r[72]
   + 2.3 r[73] + 2.8 r[74] + 4.1 r[75] + 8.7 r[76] + 6.3 r[77] + 6.1 r[78]
   + 4.3 r[79] + 0.6 r[80] + 3 r[81] + 7.9 r[82] + 6.2 r[83] + 9.8 r[84]
   + 9.8 r[85] + 1.6 r[86] + 6 r[87] + 1.8 r[88] + 3.5 r[89] + 3.7 r[90]
   + 9.3 r[91] + 1.7 r[92] + 6.8 r[93] + 2.8 r[94] + 9.3 r[95] + 8.5 r[96]
   + 4.9 r[97] + 0.8 r[98] + 8.4 r[99] + 4.9 r[100] + 10 r[101]
   + 6.6 r[102] + 2.8 r[103] + 5.3 r[104] + 7.8 r[105] + 5.9 r[106]
   + 7.5 r[107] + 7.1 r[108] + 8.5 r[109] + 7.9 r[110] + 1.1 r[111]
   + 6.9 r[112] + 1.7 r[113] + 4.5 r[114] + 3.5 r[115] + 0.7 r[116]
   + 8.5 r[117] + 7.3 r[118] + 8.1 r[119] <= 569
 primal_lower: 0.4436115874930228 x[0] + 2.452615912708999 x[1]
   + 3.281791168597025 x[2] + 2.490629543703033 x[3]
   + 0.3681775349523536 x[4] + 0.140834180118157 x[5]
   + 2.641743886053073 x[6] + 1.3528597059817 x[7] + 3.823510807651689 x[8]
   + 0.5442417027790538 x[9] + 1.902616144375056 x[10]
   + 1.3003984541813 x[11] + 3.643076971922833 x[12]
   + 2.655114620573308 x[13] + 0.4607750367712088 x[14]
   + 2.905729980606285 x[15] + 2.010176941884351 x[16]
   + 0.5039656697664132 x[17] + 0.205995993023439 x[18]
   + 2.597912213606227 x[19] + 3.827908685370721 x[20]
   + 4.164284173812898 x[21] + 3.074135606401312 x[22]
   + 2.65043898447241 x[23] + 3.347487998476959 x[24]
   + 0.8397449079612566 x[25] + 4.157088419660321 x[26]
   + 3.688694558502408 x[27] + 3.439982907712464 x[28]
   + 2.565266419817357 x[29] + 4.599217530401156 x[30]
   + 4.346036798848708 x[31] + 2.875416861129732 x[32]
   + 2.361289200268935 x[33] + 3.210111477907317 x[34]
   + 4.102658270376263 x[35] + 0.1652764065929141 x[36]
   + 2.423321296141724 x[37] + 1.9334964949226 x[38]
   + 4.57367529828431 x[39] + 4.00352929678825 x[40]
   + 3.670103246461586 x[41] + 0.0908837715376963 x[42]
   + 0.1195136975357977 x[43] + 0.1141383326419158 x[44]
   + 2.400551403673611 x[45] + 3.451985103732633 x[46]
   + 0.9575439995666867 x[47] + 3.292098145338962 x[48]
   + 2.850705583423436 x[49] + 3.519812451545997 x[50]
   + 2.475118649533471 x[51] + 1.72365039132042 x[52]
   + 3.646795862762737 x[53] + 4.052274003148403 x[54]
   + 3.400429583642736 x[55] + 3.631969207767408 x[56]
   + 2.389410774915684 x[57] + 1.838357523968991 x[58]
   + 2.1039582611987 x[59] + 0.8197832737877625 x[60]
   + 4.53169204393516 x[61] + 2.574483607425984 x[62]
   + 4.040297006163512 x[63] + 0.7359310151720263 x[64]
   + 1.036022200999661 x[65] + 4.001464532126804 x[66]
   + 0.6713511820812473 x[67] + 2.656938955934767 x[68]
   + 2.03050439139911 x[69] + 0.708179665777402 x[70]
   + 1.507786092243794 x[71] + 1.270908096156725 x[72]
   + 4.480618478569998 x[73] + 1.595353709317829 x[74]
   + 2.957631903736307 x[75] + 0.6589151123837901 x[76]
   + 3.049155357240072 x[77] + 4.619552681010231 x[78]
   + 3.995121724896933 x[79] + 0.2531534563129074 x[80]
   + 1.854202308058782 x[81] + 3.326199843704125 x[82]
   + 1.884671887676189 x[83] + 3.698882264131062 x[84]
   + 3.449650134221341 x[85] + 3.343136775428875 x[86]
   + 3.537432291917407 x[87] + 1.999930381243628 x[88]
   + 0.0998461895659251 x[89] + 1.995226694960263 x[90]
   + 0.3809411890341741 x[91] + 0.1380711924470483 x[92]
   + 0.225161752229731 x[93] + 2.475018005661642 x[94]
   + 1.562297245721839 x[95] + 0.1413112130970584 x[96]
   + 0.0337647978350183 x[97] + 2.194169033671538 x[98]
   + 0.0990150810626147 x[99] + 0.9621797564922661 x[100]
   + 0.4654257443482894 x[101] + 0.2434330014611733 x[102]
   + 0.3512415718011284 x[103] + 0.9475553945010965 x[104]
   + 4.536172511520864 x[105] + 0.6058332492357684 x[106]
   + 3.505662323155032 x[107] + 2.48142580330703 x[108]
   + 3.100697929232 x[109] + 1.338294869091687 x[110]
   + 1.013900438812752 x[111] + 2.793515094673915 x[112]
   + 3.25656395906385 x[113] + 1.146770211432573 x[114]
   + 4.117528975577155 x[115] + 2.182748091647949 x[116]
   + 2.558721023659596 x[117] + 0.1913514555050697 x[118]
   + 3.997976472163001 x[119] + 46 u[0] + 79 u[1] + 49 u[2] + 66 u[3]
   + 59 u[4] + 56 u[5] + 44 u[6] + 10 u[7] + 40 u[8] + 45 u[9] + 14 u[10]
   + 82 u[11] + 7 u[12] + 11 u[13] + 27 u[14] + 67 u[15] + 84 u[16]
   + 51 u[17] + 4 u[18] + 13 u[19] + 72 u[20] + 54 u[21] + 47 u[22]
   + 69 u[23] + 3 u[24] + 47 u[25] + 81 u[26] + 22 u[27] + 12 u[28]
   + 66 u[29] + 56 u[30] + 74 u[31] + 38 u[32] + 24 u[33] + 39 u[34]
   + 4 u[35] + 67 u[36] + 63 u[37] + 83 u[38] + 33 u[39] + 46 u[40]
   + 44 u[41] + 81 u[42] + 24 u[43] + 66 u[44] + 97 u[45] + 8 u[46]
   + 56 u[47] + 82 u[48] + 63 u[49] + 37 u[50] + 95 u[51] + 92 u[52]
   + 23 u[53] + 47 u[54] + 22 u[55] + 96 u[56] + 81 u[57] + 67 u[58]
   + 9 u[59] + 87 u[60] + 77 u[61] + 38 u[62] + 5 u[63] + 94 u[64]
   + 47 u[65] + 87 u[66] + 41 u[67] + 79 u[68] + 48 u[69] + 96 u[70]
   + 20 u[71] + 49 u[72] + 18 u[73] + 42 u[74] + 23 u[75] + 65 u[76]
   + 18 u[77] + 55 u[78] + 49 u[79] + 68 u[80] + 44 u[81] + u[82]
   + 60 u[83] + 8 u[84] + 52 u[85] + 30 u[86] + 55 u[87] + 33 u[88]
   + 66 u[89] + 39 u[90] + 7 u[91] + 91 u[92] + 70 u[93] + 91 u[94]
   + 24 u[95] + 40 u[96] + 51 u[97] + 79 u[98] + 71 u[99] + 40 u[100]
   + 43 u[101] + 97 u[102] + 43 u[103] + 56 u[104] + 41 u[105] + 90 u[106]
   + 17 u[107] + 77 u[108] + 64 u[109] + 57 u[110] + 70 u[111] + 16 u[112]
   + 100 u[113] + 44 u[114] + 45 u[115] + 6 u[116] + 76 u[117] + 8 u[118]
   + 3 u[119] <= 22691
 mccormick1[0]: - u[0] + r[0] <= 0
 mccormick1[1]: - u[1] + r[1] <= 0
 mccormick1[2]: - u[2] + r[2] <= 0
 mccormick1[3]: - u[3] + r[3] <= 0
 mccormick1[4]: - u[4] + r[4] <= 0
 mccormick1[5]: - u[5] + r[5] <= 0
 mccormick1[6]: - u[6] + r[6] <= 0
 mccormick1[7]: - u[7] + r[7] <= 0
 mccormick1[8]: - u[8] + r[8] <= 0
 mccormick1[9]: - u[9] + r[9] <= 0
 mccormick1[10]: - u[10] + r[10] <= 0
 mccormick1[11]: - u[11] + r[11] <= 0
 mccormick1[12]: - u[12] + r[12] <= 0
 mccormick1[13]: - u[13] + r[13] <= 0
 mccormick1[14]: - u[14] + r[14] <= 0
 mccormick1[15]: - u[15] + r[15] <= 0
 mccormick1[16]: - u[16] + r[16] <= 0
 mccormick1[17]: - u[17] + r[17] <= 0
 mccormick1[18]: - u[18] + r[18] <= 0
 mccormick1[19]: - u[19] + r[19] <= 0
 mccormick1[20]: - u[20] + r[20] <= 0
 mccormick1[21]: - u[21] + r[21] <= 0
 mccormick1[22]: - u[22] + r[22] <= 0
 mccormick1[23]: - u[23] + r[23] <= 0
 mccormick1[24]: - u[24] + r[24] <= 0
 mccormick1[25]: - u[25] + r[25] <= 0
 mccormick1[26]: - u[26] + r[26] <= 0
 mccormick1[27]: - u[27] + r[27] <= 0
 mccormick1[28]: - u[28] + r[28] <= 0
 mccormick1[29]: - u[29] + r[29] <= 0
 mccormick1[30]: - u[30] + r[30] <= 0
 mccormick1[31]: - u[31] + r[31] <= 0
 mccormick1[32]: - u[32] + r[32] <= 0
 mccormick1[33]: - u[33] + r[33] <= 0
 mccormick1[34]: - u[34] + r[34] <= 0
 mccormick1[35]: - u[35] + r[35] <= 0
 mccormick1[36]: - u[36] + r[36] <= 0
 mccormick1[37]: - u[37] + r[37] <= 0
 mccormick1[38]: - u[38] + r[38] <= 0
 mccormick1[39]: - u[39] + r[39] <= 0
 mccormick1[40]: - u[40] + r[40] <= 0
 mccormick1[41]: - u[41] + r[41] <= 0
 mccormick1[42]: - u[42] + r[42] <= 0
 mccormick1[43]: - u[43] + r[43] <= 0
 mccormick1[44]: - u[44] + r[44] <= 0
 mccormick1[45]: - u[45] + r[45] <= 0
 mccormick1[46]: - u[46] + r[46] <= 0
 mccormick1[47]: - u[47] + r[47] <= 0
 mccormick1[48]: - u[48] + r[48] <= 0
 mccormick1[49]: - u[49] + r[49] <= 0
 mccormick1[50]: - u[50] + r[50] <= 0
 mccormick1[51]: - u[51] + r[51] <= 0
 mccormick1[52]: - u[52] + r[52] <= 0
 mccormick1[53]: - u[53] + r[53] <= 0
 mccormick1[54]: - u[54] + r[54] <= 0
 mccormick1[55]: - u[55] + r[55] <= 0
 mccormick1[56]: - u[56] + r[56] <= 0
 mccormick1[57]: - u[57] + r[57] <= 0
 mccormick1[58]: - u[58] + r[58] <= 0
 mccormick1[59]: - u[59] + r[59] <= 0
 mccormick1[60]: - u[60] + r[60] <= 0
 mccormick1[61]: - u[61] + r[61] <= 0
 mccormick1[62]: - u[62] + r[62] <= 0
 mccormick1[63]: - u[63] + r[63] <= 0
 mccormick1[64]: - u[64] + r[64] <= 0
 mccormick1[65]: - u[65] + r[65] <= 0
 mccormick1[66]: - u[66] + r[66] <= 0
 mccormick1[67]: - u[67] + r[67] <= 0
 mccormick1[68]: - u[68] + r[68] <= 0
 mccormick1[69]: - u[69] + r[69] <= 0
 mccormick1[70]: - u[70] + r[70] <= 0
 mccormick1[71]: - u[71] + r[71] <= 0
 mccormick1[72]: - u[72] + r[72] <= 0
 mccormick1[73]: - u[73] + r[73] <= 0
 mccormick1[74]: - u[74] + r[74] <= 0
 mccormick1[75]: - u[75] + r[75] <= 0
 mccormick1[76]: - u[76] + r[76] <= 0
 mccormick1[77]: - u[77] + r[77] <= 0
 mccormick1[78]: - u[78] + r[78] <= 0
 mccormick1[79]: - u[79] + r[79] <= 0
 mccormick1[80]: - u[80] + r[80] <= 0
 mccormick1[81]: - u[81] + r[81] <= 0
 mccormick1[82]: - u[82] + r[82] <= 0
 mccormick1[83]: - u[83] + r[83] <= 0
 mccormick1[84]: - u[84] + r[84] <= 0
 mccormick1[85]: - u[85] + r[85] <= 0
 mccormick1[86]: - u[86] + r[86] <= 0
 mccormick1[87]: - u[87] + r[87] <= 0
 mccormick1[88]: - u[88] + r[88] <= 0
 mccormick1[89]: - u[89] + r[89] <= 0
 mccormick1[90]: - u[90] + r[90] <= 0
 mccormick1[91]: - u[91] + r[91] <= 0
 mccormick1[92]: - u[92] + r[92] <= 0
 mccormick1[93]: - u[93] + r[93] <= 0
 mccormick1[94]: - u[94] + r[94] <= 0
 mccormick1[95]: - u[95] + r[95] <= 0
 mccormick1[96]: - u[96] + r[96] <= 0
 mccormick1[97]: - u[97] + r[97] <= 0
 mccormick1[98]: - u[98] + r[98] <= 0
 mccormick1[99]: - u[99] + r[99] <= 0
 mccormick1[100]: - u[100] + r[100] <= 0
 mccormick1[101]: - u[101] + r[101] <= 0
 mccormick1[102]: - u[102] + r[102] <= 0
 mccormick1[103]: - u[103] + r[103] <= 0
 mccormick1[104]: - u[104] + r[104] <= 0
 mccormick1[105]: - u[105] + r[105] <= 0
 mccormick1[106]: - u[106] + r[106] <= 0
 mccormick1[107]: - u[107] + r[107] <= 0
 mccormick1[108]: - u[108] + r[108] <= 0
 mccormick1[109]: - u[109] + r[109] <= 0
 mccormick1[110]: - u[110] + r[110] <= 0
 mccormick1[111]: - u[111] + r[111] <= 0
 mccormick1[112]: - u[112] + r[112] <= 0
 mccormick1[113]: - u[113] + r[113] <= 0
 mccormick1[114]: - u[114] + r[114] <= 0
 mccormick1[115]: - u[115] + r[115] <= 0
 mccormick1[116]: - u[116] + r[116] <= 0
 mccormick1[117]: - u[117] + r[117] <= 0
 mccormick1[118]: - u[118] + r[118] <= 0
 mccormick1[119]: - u[119] + r[119] <= 0
 mccormick2[0]: - x[0] + r[0] <= 0
 mccormick2[1]: - x[1] + r[1] <= 0
 mccormick2[2]: - x[2] + r[2] <= 0
 mccormick2[3]: - x[3] + r[3] <= 0
 mccormick2[4]: - x[4] + r[4] <= 0
 mccormick2[5]: - x[5] + r[5] <= 0
 mccormick2[6]: - x[6] + r[6] <= 0
 mccormick2[7]: - x[7] + r[7] <= 0
 mccormick2[8]: - x[8] + r[8] <= 0
 mccormick2[9]: - x[9] + r[9] <= 0
 mccormick2[10]: - x[10] + r[10] <= 0
 mccormick2[11]: - x[11] + r[11] <= 0
 mccormick2[12]: - x[12] + r[12] <= 0
 mccormick2[13]: - x[13] + r[13] <= 0
 mccormick2[14]: - x[14] + r[14] <= 0
 mccormick2[15]: - x[15] + r[15] <= 0
 mccormick2[16]: - x[16] + r[16] <= 0
 mccormick2[17]: - x[17] + r[17] <= 0
 mccormick2[18]: - x[18] + r[18] <= 0
 mccormick2[19]: - x[19] + r[19] <= 0
 mccormick2[20]: - x[20] + r[20] <= 0
 mccormick2[21]: - x[21] + r[21] <= 0
 mccormick2[22]: - x[22] + r[22] <= 0
 mccormick2[23]: - x[23] + r[23] <= 0
 mccormick2[24]: - x[24] + r[24] <= 0
 mccormick2[25]: - x[25] + r[25] <= 0
 mccormick2[26]: - x[26] + r[26] <= 0
 mccormick2[27]: - x[27] + r[27] <= 0
 mccormick2[28]: - x[28] + r[28] <= 0
 mccormick2[29]: - x[29] + r[29] <= 0
 mccormick2[30]: - x[30] + r[30] <= 0
 mccormick2[31]: - x[31] + r[31] <= 0
 mccormick2[32]: - x[32] + r[32] <= 0
 mccormick2[33]: - x[33] + r[33] <= 0
 mccormick2[34]: - x[34] + r[34] <= 0
 mccormick2[35]: - x[35] + r[35] <= 0
 mccormick2[36]: - x[36] + r[36] <= 0
 mccormick2[37]: - x[37] + r[37] <= 0
 mccormick2[38]: - x[38] + r[38] <= 0
 mccormick2[39]: - x[39] + r[39] <= 0
 mccormick2[40]: - x[40] + r[40] <= 0
 mccormick2[41]: - x[41] + r[41] <= 0
 mccormick2[42]: - x[42] + r[42] <= 0
 mccormick2[43]: - x[43] + r[43] <= 0
 mccormick2[44]: - x[44] + r[44] <= 0
 mccormick2[45]: - x[45] + r[45] <= 0
 mccormick2[46]: - x[46] + r[46] <= 0
 mccormick2[47]: - x[47] + r[47] <= 0
 mccormick2[48]: - x[48] + r[48] <= 0
 mccormick2[49]: - x[49] + r[49] <= 0
 mccormick2[50]: - x[50] + r[50] <= 0
 mccormick2[51]: - x[51] + r[51] <= 0
 mccormick2[52]: - x[52] + r[52] <= 0
 mccormick2[53]: - x[53] + r[53] <= 0
 mccormick2[54]: - x[54] + r[54] <= 0
 mccormick2[55]: - x[55] + r[55] <= 0
 mccormick2[56]: - x[56] + r[56] <= 0
 mccormick2[57]: - x[57] + r[57] <= 0
 mccormick2[58]: - x[58] + r[58] <= 0
 mccormick2[59]: - x[59] + r[59] <= 0
 mccormick2[60]: - x[60] + r[60] <= 0
 mccormick2[61]: - x[61] + r[61] <= 0
 mccormick2[62]: - x[62] + r[62] <= 0
 mccormick2[63]: - x[63] + r[63] <= 0
 mccormick2[64]: - x[64] + r[64] <= 0
 mccormick2[65]: - x[65] + r[65] <= 0
 mccormick2[66]: - x[66] + r[66] <= 0
 mccormick2[67]: - x[67] + r[67] <= 0
 mccormick2[68]: - x[68] + r[68] <= 0
 mccormick2[69]: - x[69] + r[69] <= 0
 mccormick2[70]: - x[70] + r[70] <= 0
 mccormick2[71]: - x[71] + r[71] <= 0
 mccormick2[72]: - x[72] + r[72] <= 0
 mccormick2[73]: - x[73] + r[73] <= 0
 mccormick2[74]: - x[74] + r[74] <= 0
 mccormick2[75]: - x[75] + r[75] <= 0
 mccormick2[76]: - x[76] + r[76] <= 0
 mccormick2[77]: - x[77] + r[77] <= 0
 mccormick2[78]: - x[78] + r[78] <= 0
 mccormick2[79]: - x[79] + r[79] <= 0
 mccormick2[80]: - x[80] + r[80] <= 0
 mccormick2[81]: - x[81] + r[81] <= 0
 mccormick2[82]: - x[82] + r[82] <= 0
 mccormick2[83]: - x[83] + r[83] <= 0
 mccormick2[84]: - x[84] + r[84] <= 0
 mccormick2[85]: - x[85] + r[85] <= 0
 mccormick2[86]: - x[86] + r[86] <= 0
 mccormick2[87]: - x[87] + r[87] <= 0
 mccormick2[88]: - x[88] + r[88] <= 0
 mccormick2[89]: - x[89] + r[89] <= 0
 mccormick2[90]: - x[90] + r[90] <= 0
 mccormick2[91]: - x[91] + r[91] <= 0
 mccormick2[92]: - x[92] + r[92] <= 0
 mccormick2[93]: - x[93] + r[93] <= 0
 mccormick2[94]: - x[94] + r[94] <= 0
 mccormick2[95]: - x[95] + r[95] <= 0
 mccormick2[96]: - x[96] + r[96] <= 0
 mccormick2[97]: - x[97] + r[97] <= 0
 mccormick2[98]: - x[98] + r[98] <= 0
 mccormick2[99]: - x[99] + r[99] <= 0
 mccormick2[100]: - x[100] + r[100] <= 0
 mccormick2[101]: - x[101] + r[101] <= 0
 mccormick2[102]: - x[102] + r[102] <= 0
 mccormick2[103]: - x[103] + r[103] <= 0
 mccormick2[104]: - x[104] + r[104] <= 0
 mccormick2[105]: - x[105] + r[105] <= 0
 mccormick2[106]: - x[106] + r[106] <= 0
 mccormick2[107]: - x[107] + r[107] <= 0
 mccormick2[108]: - x[108] + r[108] <= 0
 mccormick2[109]: - x[109] + r[109] <= 0
 mccormick2[110]: - x[110] + r[110] <= 0
 mccormick2[111]: - x[111] + r[111] <= 0
 mccormick2[112]: - x[112] + r[112] <= 0
 mccormick2[113]: - x[113] + r[113] <= 0
 mccormick2[114]: - x[114] + r[114] <= 0
 mccormick2[115]: - x[115] + r[115] <= 0
 mccormick2[116]: - x[116] + r[116] <= 0
 mccormick2[117]: - x[117] + r[117] <= 0
 mccormick2[118]: - x[118] + r[118] <= 0
 mccormick2[119]: - x[119] + r[119] <= 0
 mccormick3[0]: x[0] + u[0] - r[0] <= 1
 mccormick3[1]: x[1] + u[1] - r[1] <= 1
 mccormick3[2]: x[2] + u[2] - r[2] <= 1
 mccormick3[3]: x[3] + u[3] - r[3] <= 1
 mccormick3[4]: x[4] + u[4] - r[4] <= 1
 mccormick3[5]: x[5] + u[5] - r[5] <= 1
 mccormick3[6]: x[6] + u[6] - r[6] <= 1
 mccormick3[7]: x[7] + u[7] - r[7] <= 1
 mccormick3[8]: x[8] + u[8] - r[8] <= 1
 mccormick3[9]: x[9] + u[9] - r[9] <= 1
 mccormick3[10]: x[10] + u[10] - r[10] <= 1
 mccormick3[11]: x[11] + u[11] - r[11] <= 1
 mccormick3[12]: x[12] + u[12] - r[12] <= 1
 mccormick3[13]: x[13] + u[13] - r[13] <= 1
 mccormick3[14]: x[14] + u[14] - r[14] <= 1
 mccormick3[15]: x[15] + u[15] - r[15] <= 1
 mccormick3[16]: x[16] + u[16] - r[16] <= 1
 mccormick3[17]: x[17] + u[17] - r[17] <= 1
 mccormick3[18]: x[18] + u[18] - r[18] <= 1
 mccormick3[19]: x[19] + u[19] - r[19] <= 1
 mccormick3[20]: x[20] + u[20] - r[20] <= 1
 mccormick3[21]: x[21] + u[21] - r[21] <= 1
 mccormick3[22]: x[22] + u[22] - r[22] <= 1
 mccormick3[23]: x[23] + u[23] - r[23] <= 1
 mccormick3[24]: x[24] + u[24] - r[24] <= 1
 mccormick3[25]: x[25] + u[25] - r[25] <= 1
 mccormick3[26]: x[26] + u[26] - r[26] <= 1
 mccormick3[27]: x[27] + u[27] - r[27] <= 1
 mccormick3[28]: x[28] + u[28] - r[28] <= 1
 mccormick3[29]: x[29] + u[29] - r[29] <= 1
 mccormick3[30]: x[30] + u[30] - r[30] <= 1
 mccormick3[31]: x[31] + u[31] - r[31] <= 1
 mccormick3[32]: x[32] + u[32] - r[32] <= 1
 mccormick3[33]: x[33] + u[33] - r[33] <= 1
 mccormick3[34]: x[34] + u[34] - r[34] <= 1
 mccormick3[35]: x[35] + u[35] - r[35] <= 1
 mccormick3[36]: x[36] + u[36] - r[36] <= 1
 mccormick3[37]: x[37] + u[37] - r[37] <= 1
 mccormick3[38]: x[38] + u[38] - r[38] <= 1
 mccormick3[39]: x[39] + u[39] - r[39] <= 1
 mccormick3[40]: x[40] + u[40] - r[40] <= 1
 mccormick3[41]: x[41] + u[41] - r[41] <= 1
 mccormick3[42]: x[42] + u[42] - r[42] <= 1
 mccormick3[43]: x[43] + u[43] - r[43] <= 1
 mccormick3[44]: x[44] + u[44] - r[44] <= 1
 mccormick3[45]: x[45] + u[45] - r[45] <= 1
 mccormick3[46]: x[46] + u[46] - r[46] <= 1
 mccormick3[47]: x[47] + u[47] - r[47] <= 1
 mccormick3[48]: x[48] + u[48] - r[48] <= 1
 mccormick3[49]: x[49] + u[49] - r[49] <= 1
 mccormick3[50]: x[50] + u[50] - r[50] <= 1
 mccormick3[51]: x[51] + u[51] - r[51] <= 1
 mccormick3[52]: x[52] + u[52] - r[52] <= 1
 mccormick3[53]: x[53] + u[53] - r[53] <= 1
 mccormick3[54]: x[54] + u[54] - r[54] <= 1
 mccormick3[55]: x[55] + u[55] - r[55] <= 1
 mccormick3[56]: x[56] + u[56] - r[56] <= 1
 mccormick3[57]: x[57] + u[57] - r[57] <= 1
 mccormick3[58]: x[58] + u[58] - r[58] <= 1
 mccormick3[59]: x[59] + u[59] - r[59] <= 1
 mccormick3[60]: x[60] + u[60] - r[60] <= 1
 mccormick3[61]: x[61] + u[61] - r[61] <= 1
 mccormick3[62]: x[62] + u[62] - r[62] <= 1
 mccormick3[63]: x[63] + u[63] - r[63] <= 1
 mccormick3[64]: x[64] + u[64] - r[64] <= 1
 mccormick3[65]: x[65] + u[65] - r[65] <= 1
 mccormick3[66]: x[66] + u[66] - r[66] <= 1
 mccormick3[67]: x[67] + u[67] - r[67] <= 1
 mccormick3[68]: x[68] + u[68] - r[68] <= 1
 mccormick3[69]: x[69] + u[69] - r[69] <= 1
 mccormick3[70]: x[70] + u[70] - r[70] <= 1
 mccormick3[71]: x[71] + u[71] - r[71] <= 1
 mccormick3[72]: x[72] + u[72] - r[72] <= 1
 mccormick3[73]: x[73] + u[73] - r[73] <= 1
 mccormick3[74]: x[74] + u[74] - r[74] <= 1
 mccormick3[75]: x[75] + u[75] - r[75] <= 1
 mccormick3[76]: x[76] + u[76] - r[76] <= 1
 mccormick3[77]: x[77] + u[77] - r[77] <= 1
 mccormick3[78]: x[78] + u[78] - r[78] <= 1
 mccormick3[79]: x[79] + u[79] - r[79] <= 1
 mccormick3[80]: x[80] + u[80] - r[80] <= 1
 mccormick3[81]: x[81] + u[81] - r[81] <= 1
 mccormick3[82]: x[82] + u[82] - r[82] <= 1
 mccormick3[83]: x[83] + u[83] - r[83] <= 1
 mccormick3[84]: x[84] + u[84] - r[84] <= 1
 mccormick3[85]: x[85] + u[85] - r[85] <= 1
 mccormick3[86]: x[86] + u[86] - r[86] <= 1
 mccormick3[87]: x[87] + u[87] - r[87] <= 1
 mccormick3[88]: x[88] + u[88] - r[88] <= 1
 mccormick3[89]: x[89] + u[89] - r[89] <= 1
 mccormick3[90]: x[90] + u[90] - r[90] <= 1
 mccormick3[91]: x[91] + u[91] - r[91] <= 1
 mccormick3[92]: x[92] + u[92] - r[92] <= 1
 mccormick3[93]: x[93] + u[93] - r[93] <= 1
 mccormick3[94]: x[94] + u[94] - r[94] <= 1
 mccormick3[95]: x[95] + u[95] - r[95] <= 1
 mccormick3[96]: x[96] + u[96] - r[96] <= 1
 mccormick3[97]: x[97] + u[97] - r[97] <= 1
 mccormick3[98]: x[98] + u[98] - r[98] <= 1
 mccormick3[99]: x[99] + u[99] - r[99] <= 1
 mccormick3[100]: x[100] + u[100] - r[100] <= 1
 mccormick3[101]: x[101] + u[101] - r[101] <= 1
 mccormick3[102]: x[102] + u[102] - r[102] <= 1
 mccormick3[103]: x[103] + u[103] - r[103] <= 1
 mccormick3[104]: x[104] + u[104] - r[104] <= 1
 mccormick3[105]: x[105] + u[105] - r[105] <= 1
 mccormick3[106]: x[106] + u[106] - r[106] <= 1
 mccormick3[107]: x[107] + u[107] - r[107] <= 1
 mccormick3[108]: x[108] + u[108] - r[108] <= 1
 mccormick3[109]: x[109] + u[109] - r[109] <= 1
 mccormick3[110]: x[110] + u[110] - r[110] <= 1
 mccormick3[111]: x[111] + u[111] - r[111] <= 1
 mccormick3[112]: x[112] + u[112] - r[112] <= 1
 mccormick3[113]: x[113] + u[113] - r[113] <= 1
 mccormick3[114]: x[114] + u[114] - r[114] <= 1
 mccormick3[115]: x[115] + u[115] - r[115] <= 1
 mccormick3[116]: x[116] + u[116] - r[116] <= 1
 mccormick3[117]: x[117] + u[117] - r[117] <= 1
 mccormick3[118]: x[118] + u[118] - r[118] <= 1
 mccormick3[119]: x[119] + u[119] - r[119] <= 1
Bounds
Binaries
 x[0] x[1] x[2] x[3] x[4] x[5] x[6] x[7] x[8] x[9] x[10] x[11] x[12] x[13]
 x[14] x[15] x[16] x[17] x[18] x[19] x[20] x[21] x[22] x[23] x[24] x[25]
 x[26] x[27] x[28] x[29] x[30] x[31] x[32] x[33] x[34] x[35] x[36] x[37]
 x[38] x[39] x[40] x[41] x[42] x[43] x[44] x[45] x[46] x[47] x[48] x[49]
 x[50] x[51] x[52] x[53] x[54] x[55] x[56] x[57] x[58] x[59] x[60] x[61]
 x[62] x[63] x[64] x[65] x[66] x[67] x[68] x[69] x[70] x[71] x[72] x[73]
 x[74] x[75] x[76] x[77] x[78] x[79] x[80] x[81] x[82] x[83] x[84] x[85]
 x[86] x[87] x[88] x[89] x[90] x[91] x[92] x[93] x[94] x[95] x[96] x[97]
 x[98] x[99] x[100] x[101] x[102] x[103] x[104] x[105] x[106] x[107] x[108]
 x[109] x[110] x[111] x[112] x[113] x[114] x[115] x[116] x[117] x[118]
 x[119] u[0] u[1] u[2] u[3] u[4] u[5] u[6] u[7] u[8] u[9] u[10] u[11] u[12]
 u[13] u[14] u[15] u[16] u[17] u[18] u[19] u[20] u[21] u[22] u[23] u[24]
 u[25] u[26] u[27] u[28] u[29] u[30] u[31] u[32] u[33] u[34] u[35] u[36]
 u[37] u[38] u[39] u[40] u[41] u[42] u[43] u[44] u[45] u[46] u[47] u[48]
 u[49] u[50] u[51] u[52] u[53] u[54] u[55] u[56] u[57] u[58] u[59] u[60]
 u[61] u[62] u[63] u[64] u[65] u[66] u[67] u[68] u[69] u[70] u[71] u[72]
 u[73] u[74] u[75] u[76] u[77] u[78] u[79] u[80] u[81] u[82] u[83] u[84]
 u[85] u[86] u[87] u[88] u[89] u[90] u[91] u[92] u[93] u[94] u[95] u[96]
 u[97] u[98] u[99] u[100] u[101] u[102] u[103] u[104] u[105] u[106] u[107]
 u[108] u[109] u[110] u[111] u[112] u[113] u[114] u[115] u[116] u[117]
 u[118] u[119] r[0] r[1] r[2] r[3] r[4] r[5] r[6] r[7] r[8] r[9] r[10]
 r[11] r[12] r[13] r[14] r[15] r[16] r[17] r[18] r[19] r[20] r[21] r[22]
 r[23] r[24] r[25] r[26] r[27] r[28] r[29] r[30] r[31] r[32] r[33] r[34]
 r[35] r[36] r[37] r[38] r[39] r[40] r[41] r[42] r[43] r[44] r[45] r[46]
 r[47] r[48] r[49] r[50] r[51] r[52] r[53] r[54] r[55] r[56] r[57] r[58]
 r[59] r[60] r[61] r[62] r[63] r[64] r[65] r[66] r[67] r[68] r[69] r[70]
 r[71] r[72] r[73] r[74] r[75] r[76] r[77] r[78] r[79] r[80] r[81] r[82]
 r[83] r[84] r[85] r[86] r[87] r[88] r[89] r[90] r[91] r[92] r[93] r[94]
 r[95] r[96] r[97] r[98] r[99] r[100] r[101] r[102] r[103] r[104] r[105]
 r[106] r[107] r[108] r[109] r[110] r[111] r[112] r[113] r[114] r[115]
 r[116] r[117] r[118] r[119]
End
