instances/knapsack/discrete/knapsack_120_19.kp
36522
120
569

20 2.0 14
32 3.2 27
50 5.0 8
59 5.9 36
24 2.4 78
14 1.4 5
49 4.9 82
56 5.6 28
1 0.1 31
74 7.4 67
92 9.2 59
59 5.9 15
32 3.2 87
32 3.2 58
33 3.3 91
5 0.5 36
65 6.5 98
28 2.8 62
21 2.1 11
54 5.4 18
65 6.5 54
92 9.2 51
4 0.4 8
83 8.3 20
49 4.9 77
56 5.6 31
18 1.8 76
88 8.8 92
2 0.2 22
3 0.3 89
78 7.8 57
4 0.4 92
24 2.4 48
61 6.1 7
28 2.8 8
65 6.5 45
96 9.6 1
5 0.5 7
16 1.6 27
95 9.5 48
83 8.3 4
6 0.6 42
90 9.0 58
14 1.4 91
35 3.5 43
87 8.7 31
34 3.4 77
42 4.2 57
23 2.3 9
16 1.6 58
63 6.3 27
64 6.4 71
25 2.5 15
80 8.0 17
73 7.3 72
36 3.6 14
93 9.3 27
7 0.7 12
72 7.2 48
78 7.8 19
29 2.9 4
87 8.7 94
8 0.8 66
67 6.7 42
56 5.6 59
20 2.0 41
33 3.3 33
63 6.3 2
52 5.2 13
38 3.8 94
90 9.0 1
62 6.2 91
46 4.6 45
23 2.3 74
28 2.8 91
41 4.1 2
87 8.7 94
63 6.3 65
61 6.1 76
43 4.3 24
6 0.6 31
30 3.0 86
79 7.9 34
62 6.2 22
98 9.8 69
98 9.8 13
16 1.6 94
60 6.0 63
18 1.8 36
35 3.5 55
37 3.7 42
93 9.3 42
17 1.7 14
68 6.8 9
28 2.8 84
93 9.3 27
85 8.5 9
49 4.9 36
8 0.8 97
84 8.4 5
49 4.9 13
100 10.0 38
66 6.6 39
28 2.8 22
53 5.3 59
78 7.8 39
59 5.9 22
75 7.5 45
71 7.1 34
85 8.5 53
79 7.9 70
11 1.1 98
69 6.9 6
17 1.7 36
45 4.5 34
35 3.5 97
7 0.7 31
85 8.5 61
73 7.3 30
81 8.1 59

22691
567

[0.4436115874930228 2.452615912708999 3.2817911685970254 2.4906295437030326 0.36817753495235356 0.14083418011815702 2.6417438860530726 1.3528597059816998 3.823510807651689 0.5442417027790538 1.9026161443750562 1.3003984541813 3.6430769719228326 2.6551146205733076 0.46077503677120885 2.905729980606285 2.0101769418843514 0.5039656697664132 0.20599599302343902 2.5979122136062274 3.8279086853707214 4.164284173812898 3.0741356064013123 2.65043898447241 3.3474879984769585 0.8397449079612566 4.157088419660321 3.6886945585024082 3.4399829077124644 2.565266419817357 4.599217530401156 4.346036798848708 2.875416861129732 2.3612892002689345 3.210111477907317 4.102658270376263 0.16527640659291412 2.4233212961417236 1.9334964949225997 4.57367529828431 4.00352929678825 3.6701032464615864 0.09088377153769632 0.11951369753579771 0.11413833264191585 2.4005514036736106 3.451985103732633 0.9575439995666867 3.292098145338962 2.8507055834234363 3.5198124515459974 2.475118649533471 1.7236503913204195 3.6467958627627373 4.052274003148403 3.400429583642736 3.6319692077674084 2.389410774915684 1.8383575239689913 2.1039582611987004 0.8197832737877625 4.53169204393516 2.5744836074259845 4.040297006163512 0.7359310151720263 1.036022200999661 4.001464532126804 0.6713511820812473 2.6569389559347667 2.03050439139911 0.708179665777402 1.5077860922437942 1.2709080961567252 4.480618478569998 1.5953537093178294 2.957631903736307 0.6589151123837901 3.0491553572400725 4.619552681010231 3.995121724896933 0.25315345631290737 1.8542023080587815 3.326199843704125 1.8846718876761888 3.6988822641310617 3.449650134221341 3.343136775428875 3.5374322919174066 1.9999303812436275 0.09984618956592511 1.9952266949602626 0.38094118903417407 0.1380711924470483 0.225161752229731 2.4750180056616418 1.562297245721839 0.1413112130970584 0.03376479783501832 2.1941690336715376 0.09901508106261467 0.9621797564922661 0.4654257443482894 0.24343300146117328 0.35124157180112836 0.9475553945010965 4.5361725115208635 0.6058332492357684 3.505662323155032 2.4814258033070304 3.1006979292319996 1.3382948690916872 1.0139004388127517 2.793515094673915 3.2565639590638504 1.146770211432573 4.117528975577155 2.1827480916479494 2.5587210236595963 0.19135145550506966 3.9979764721630007]

[46 79 49 66 59 56 44 10 40 45 14 82 7 11 27 67 84 51 4 13 72 54 47 69 3 47 81 22 12 66 56 74 38 24 39 4 67 63 83 33 46 44 81 24 66 97 8 56 82 63 37 95 92 23 47 22 96 81 67 9 87 77 38 5 94 47 87 41 79 48 96 20 49 18 42 23 65 18 55 49 68 44 1 60 8 52 30 55 33 66 39 7 91 70 91 24 40 51 79 71 40 43 97 43 56 41 90 17 77 64 57 70 16 100 44 45 6 76 8 3]
